Gurobi Optimizer version 9.1.2 build v9.1.2rc0 (linux64)
Thread count: 36 physical cores, 72 logical processors, using up to 32 threads
Optimize a model with 12 rows, 57 columns and 590 nonzeros
Model fingerprint: 0xf32eec78
Model has 47 quadratic constraints
Coefficient statistics:
  Matrix range     [2e-05, 3e+00]
  QMatrix range    [1e+00, 1e+00]
  QLMatrix range   [1e+00, 1e+00]
  Objective range  [8e-03, 7e-01]
  Bounds range     [1e+00, 1e+00]
  RHS range        [1e+00, 1e+00]
Presolve removed 9 rows and 0 columns

Continuous model is non-convex -- solving as a MIP.

Presolve removed 9 rows and 0 columns
Presolve time: 0.00s
Presolved: 189 rows, 57 columns, 443 nonzeros
Presolved model has 47 bilinear constraint(s)
Variable types: 57 continuous, 0 integer (0 binary)

Root relaxation: objective -1.743721e+00, 44 iterations, 0.00 seconds

    Nodes    |    Current Node    |     Objective Bounds      |     Work
 Expl Unexpl |  Obj  Depth IntInf | Incumbent    BestBd   Gap | It/Node Time

     0     0   -1.74372    0   38          -   -1.74372      -     -    0s
H    0     0                       0.6147548   -1.74372   384%     -    0s
     0     0   -1.64739    0    1    0.61475   -1.64739   368%     -    0s
H    0     0                      -1.6450460   -1.64739  0.14%     -    0s
     0     0     cutoff    0        -1.64505   -1.64505  0.00%     -    0s

Cutting planes:
  RLT: 25
  BQP: 3

Explored 1 nodes (76 simplex iterations) in 0.01 seconds
Thread count was 32 (of 72 available processors)

Solution count 2: -1.64505 0.614755 
No other solutions better than -1.64505

Optimal solution found (tolerance 1.00e-04)
Best objective -1.645045978473e+00, best bound -1.645045978473e+00, gap 0.0000%

User-callback calls 78, time in user-callback 0.00 sec
Gurobi Optimizer version 9.1.2 build v9.1.2rc0 (linux64)
Thread count: 36 physical cores, 72 logical processors, using up to 32 threads
Optimize a model with 24 rows, 125 columns and 2580 nonzeros
Model fingerprint: 0xb9396c97
Model has 105 quadratic constraints
Coefficient statistics:
  Matrix range     [5e-06, 5e+01]
  QMatrix range    [1e+00, 1e+00]
  QLMatrix range   [1e+00, 1e+00]
  Objective range  [2e-02, 1e+00]
  Bounds range     [1e+00, 1e+00]
  RHS range        [1e+00, 1e+00]
Presolve removed 10 rows and 0 columns

Continuous model is non-convex -- solving as a MIP.

Presolve removed 10 rows and 0 columns
Presolve time: 0.00s
Presolved: 429 rows, 125 columns, 2142 nonzeros
Presolved model has 105 bilinear constraint(s)
Variable types: 125 continuous, 0 integer (0 binary)

Root relaxation: objective -6.769791e+00, 119 iterations, 0.00 seconds

    Nodes    |    Current Node    |     Objective Bounds      |     Work
 Expl Unexpl |  Obj  Depth IntInf | Incumbent    BestBd   Gap | It/Node Time

     0     0   -6.76979    0   95          -   -6.76979      -     -    0s
H    0     0                       0.0217155   -6.76979      -     -    0s
     0     0   -5.50636    0   83    0.02172   -5.50636      -     -    0s
H    0     0                      -2.8949408   -5.50636  90.2%     -    0s
     0     0   -5.41514    0   83   -2.89494   -5.41514  87.1%     -    0s
     0     0   -5.24267    0   70   -2.89494   -5.24267  81.1%     -    0s
     0     0   -5.23370    0   70   -2.89494   -5.23370  80.8%     -    0s
     0     0   -5.19164    0   83   -2.89494   -5.19164  79.3%     -    0s
     0     0   -5.19038    0   83   -2.89494   -5.19038  79.3%     -    0s
     0     0   -5.18172    0   83   -2.89494   -5.18172  79.0%     -    0s
     0     0   -5.18160    0   83   -2.89494   -5.18160  79.0%     -    0s
     0     0   -5.18048    0   83   -2.89494   -5.18048  78.9%     -    0s
     0     0   -5.17956    0   83   -2.89494   -5.17956  78.9%     -    0s
     0     0   -5.17938    0   83   -2.89494   -5.17938  78.9%     -    0s
H    0     0                      -3.7350272   -5.17938  38.7%     -    0s
H    0     0                      -4.0674184   -5.17938  27.3%     -    0s
H    0     0                      -4.1332537   -5.17938  25.3%     -    0s
H    0     0                      -4.1591675   -5.17938  24.5%     -    0s
     0     2   -5.17938    0   83   -4.15917   -5.17938  24.5%     -    0s
*  637   332              24      -4.3245527   -4.75075  9.86%  34.3    0s
* 1021   237              23      -4.3248209   -4.62041  6.83%  28.7    0s
* 1029   237              19      -4.3274951   -4.62041  6.77%  28.5    0s
* 1186   327              20      -4.3282455   -4.52893  4.64%  27.2    0s
* 1235   327              21      -4.3471271   -4.52893  4.18%  26.5    0s
* 1353   435              21      -4.3548231   -4.51098  3.59%  25.4    0s
* 1399   435              22      -4.3648476   -4.51098  3.35%  24.8    0s
* 1500   435              21      -4.3731983   -4.51098  3.15%  23.5    0s
* 1501   435              21      -4.3732107   -4.51098  3.15%  23.5    0s
* 1590   409              20      -4.3800842   -4.42829  1.10%  22.8    0s
* 1593   409              22      -4.3801417   -4.42829  1.10%  22.8    0s
* 1595   409              23      -4.3801433   -4.42829  1.10%  22.8    0s
* 1628   409              21      -4.3892536   -4.42829  0.89%  22.4    0s
* 1640   409              23      -4.3897699   -4.42829  0.88%  22.3    0s
* 1641   409              23      -4.3899681   -4.42829  0.87%  22.3    0s
* 1644   409              22      -4.3907661   -4.42829  0.85%  22.3    0s
* 1650   409              22      -4.3908152   -4.42829  0.85%  22.2    0s
* 1865    85              21      -4.3908698   -4.42327  0.74%  20.3    0s
* 1867    85              22      -4.3909398   -4.42327  0.74%  20.2    0s
* 1968    85              17      -4.3921043   -4.39842  0.14%  19.4    0s
* 1969    85              17      -4.3921682   -4.39842  0.14%  19.4    0s
* 2038    85              22      -4.3922941   -4.39541  0.07%  18.8    0s
* 2235     0              17      -4.3923788   -4.39240  0.00%  17.5    0s
* 2236     0              17      -4.3924028   -4.39240  0.00%  17.5    0s

Cutting planes:
  RLT: 62
  BQP: 7
  PSD: 48

Explored 2284 nodes (39425 simplex iterations) in 0.69 seconds
Thread count was 32 (of 72 available processors)

Solution count 10: -4.3924 -4.39238 -4.39229 ... -4.38997
No other solutions better than -4.3924

Optimal solution found (tolerance 1.00e-04)
Best objective -4.392402824275e+00, best bound -4.392402824275e+00, gap 0.0000%

User-callback calls 4855, time in user-callback 0.00 sec



objective value: -4.392402824275499
objective bound: -4.392402824275499
x_opt: [0.0, 0.0, 1.0, 0.0, 1.0, 0.6723865318160929, 1.0, 1.0, 1.0, 0.0, 0.0, 0.19634667627496735, 0.0, 0.0, 0.0053960426234920126, 0.4978099813200118, 0.0, 0.0, 0.0, 0.0]
GUROBI solution time: 0.6902170181274414




